(set-logic QF_LRA)
(declare-fun T1 () Real )
(declare-fun T2 () Real )
(declare-fun T3 () Real )
(declare-fun T4 () Real )
(declare-fun T5 () Real )
(declare-fun T6 () Real )
(declare-fun Z () Real )
(assert ( and 
(or ( <= ( + T1 82 ) T2 ) ( <= ( + T2 60 ) T1 ) )
(or ( <= ( + T1 126 )  ( + T2 60 ) ) ( <= ( + T2 139 )( + T1 82 ) ) )
(or ( <= ( + T1 208 )  ( + T2 139 ) ) ( <= ( + T2 194 )( + T1 126 ) ) )
(or ( <= ( + T1 290 )  ( + T2 194 ) ) ( <= ( + T2 287 )( + T1 208 ) ) )
(or ( <= ( + T1 82 ) T3 ) ( <= ( + T3 20 ) T1 ) )
(or ( <= ( + T1 126 )  ( + T3 20 ) ) ( <= ( + T3 100 )( + T1 82 ) ) )
(or ( <= ( + T1 208 )  ( + T3 100 ) ) ( <= ( + T3 165 )( + T1 126 ) ) )
(or ( <= ( + T1 290 )  ( + T3 165 ) ) ( <= ( + T3 214 )( + T1 208 ) ) )
(or ( <= ( + T1 82 ) T4 ) ( <= ( + T4 81 ) T1 ) )
(or ( <= ( + T1 126 )  ( + T4 81 ) ) ( <= ( + T4 156 )( + T1 82 ) ) )
(or ( <= ( + T1 208 )  ( + T4 156 ) ) ( <= ( + T4 254 )( + T1 126 ) ) )
(or ( <= ( + T1 290 )  ( + T4 254 ) ) ( <= ( + T4 322 )( + T1 208 ) ) )
(or ( <= ( + T1 82 ) T5 ) ( <= ( + T5 70 ) T1 ) )
(or ( <= ( + T1 126 )  ( + T5 70 ) ) ( <= ( + T5 116 )( + T1 82 ) ) )
(or ( <= ( + T1 208 )  ( + T5 116 ) ) ( <= ( + T5 151 )( + T1 126 ) ) )
(or ( <= ( + T1 290 )  ( + T5 151 ) ) ( <= ( + T5 158 )( + T1 208 ) ) )
(or ( <= ( + T1 82 ) T6 ) ( <= ( + T6 27 ) T1 ) )
(or ( <= ( + T1 126 )  ( + T6 27 ) ) ( <= ( + T6 124 )( + T1 82 ) ) )
(or ( <= ( + T1 208 )  ( + T6 124 ) ) ( <= ( + T6 191 )( + T1 126 ) ) )
(or ( <= ( + T1 290 )  ( + T6 191 ) ) ( <= ( + T6 270 )( + T1 208 ) ) )
(or ( <= ( + T2 60 ) T3 ) ( <= ( + T3 20 ) T2 ) )
(or ( <= ( + T2 139 )  ( + T3 20 ) ) ( <= ( + T3 100 )( + T2 60 ) ) )
(or ( <= ( + T2 194 )  ( + T3 100 ) ) ( <= ( + T3 165 )( + T2 139 ) ) )
(or ( <= ( + T2 287 )  ( + T3 165 ) ) ( <= ( + T3 214 )( + T2 194 ) ) )
(or ( <= ( + T2 60 ) T4 ) ( <= ( + T4 81 ) T2 ) )
(or ( <= ( + T2 139 )  ( + T4 81 ) ) ( <= ( + T4 156 )( + T2 60 ) ) )
(or ( <= ( + T2 194 )  ( + T4 156 ) ) ( <= ( + T4 254 )( + T2 139 ) ) )
(or ( <= ( + T2 287 )  ( + T4 254 ) ) ( <= ( + T4 322 )( + T2 194 ) ) )
(or ( <= ( + T2 60 ) T5 ) ( <= ( + T5 70 ) T2 ) )
(or ( <= ( + T2 139 )  ( + T5 70 ) ) ( <= ( + T5 116 )( + T2 60 ) ) )
(or ( <= ( + T2 194 )  ( + T5 116 ) ) ( <= ( + T5 151 )( + T2 139 ) ) )
(or ( <= ( + T2 287 )  ( + T5 151 ) ) ( <= ( + T5 158 )( + T2 194 ) ) )
(or ( <= ( + T2 60 ) T6 ) ( <= ( + T6 27 ) T2 ) )
(or ( <= ( + T2 139 )  ( + T6 27 ) ) ( <= ( + T6 124 )( + T2 60 ) ) )
(or ( <= ( + T2 194 )  ( + T6 124 ) ) ( <= ( + T6 191 )( + T2 139 ) ) )
(or ( <= ( + T2 287 )  ( + T6 191 ) ) ( <= ( + T6 270 )( + T2 194 ) ) )
(or ( <= ( + T3 20 ) T4 ) ( <= ( + T4 81 ) T3 ) )
(or ( <= ( + T3 100 )  ( + T4 81 ) ) ( <= ( + T4 156 )( + T3 20 ) ) )
(or ( <= ( + T3 165 )  ( + T4 156 ) ) ( <= ( + T4 254 )( + T3 100 ) ) )
(or ( <= ( + T3 214 )  ( + T4 254 ) ) ( <= ( + T4 322 )( + T3 165 ) ) )
(or ( <= ( + T3 20 ) T5 ) ( <= ( + T5 70 ) T3 ) )
(or ( <= ( + T3 100 )  ( + T5 70 ) ) ( <= ( + T5 116 )( + T3 20 ) ) )
(or ( <= ( + T3 165 )  ( + T5 116 ) ) ( <= ( + T5 151 )( + T3 100 ) ) )
(or ( <= ( + T3 214 )  ( + T5 151 ) ) ( <= ( + T5 158 )( + T3 165 ) ) )
(or ( <= ( + T3 20 ) T6 ) ( <= ( + T6 27 ) T3 ) )
(or ( <= ( + T3 100 )  ( + T6 27 ) ) ( <= ( + T6 124 )( + T3 20 ) ) )
(or ( <= ( + T3 165 )  ( + T6 124 ) ) ( <= ( + T6 191 )( + T3 100 ) ) )
(or ( <= ( + T3 214 )  ( + T6 191 ) ) ( <= ( + T6 270 )( + T3 165 ) ) )
(or ( <= ( + T4 81 ) T5 ) ( <= ( + T5 70 ) T4 ) )
(or ( <= ( + T4 156 )  ( + T5 70 ) ) ( <= ( + T5 116 )( + T4 81 ) ) )
(or ( <= ( + T4 254 )  ( + T5 116 ) ) ( <= ( + T5 151 )( + T4 156 ) ) )
(or ( <= ( + T4 322 )  ( + T5 151 ) ) ( <= ( + T5 158 )( + T4 254 ) ) )
(or ( <= ( + T4 81 ) T6 ) ( <= ( + T6 27 ) T4 ) )
(or ( <= ( + T4 156 )  ( + T6 27 ) ) ( <= ( + T6 124 )( + T4 81 ) ) )
(or ( <= ( + T4 254 )  ( + T6 124 ) ) ( <= ( + T6 191 )( + T4 156 ) ) )
(or ( <= ( + T4 322 )  ( + T6 191 ) ) ( <= ( + T6 270 )( + T4 254 ) ) )
(or ( <= ( + T5 70 ) T6 ) ( <= ( + T6 27 ) T5 ) )
(or ( <= ( + T5 116 )  ( + T6 27 ) ) ( <= ( + T6 124 )( + T5 70 ) ) )
(or ( <= ( + T5 151 )  ( + T6 124 ) ) ( <= ( + T6 191 )( + T5 116 ) ) )
(or ( <= ( + T5 158 )  ( + T6 191 ) ) ( <= ( + T6 270 )( + T5 151 ) ) )
( <= ( + T1 290 ) Z)
( <= ( + T2 287 ) Z)
( <= ( + T3 214 ) Z)
( <= ( + T4 322 ) Z)
( <= ( + T5 158 ) Z)
( <= ( + T6 270 ) Z)
( >= T1 0 )
( >= T2 0 )
( >= T3 0 )
( >= T4 0 )
( >= T5 0 )
( >= T6 0 )
) )
(maximize Z)
(check-sat)